Optimal - objective value 20.00000000
     12 x_0_13                  1                       1
     13 x_0_14                  1                       1
     72 x_3_16                  1                       1
     76 x_3_20                  1                       1
     97 x_5_8                   1                       4
    104 x_5_15                  1                       2
    110 x_5_21                  1                       1
    125 x_6_21                  1                       2
    128 x_7_10                  1                       2
    138 x_7_20                  1                       2
    201 x_13_20                 1                       2
    202 x_13_21                 1                       1
    255 f_0_13                8.5                       0
    256 f_13_0                0.5                       0
    257 f_0_14                  5                       0
    258 f_14_0                  4                       0
    375 f_3_16                  5                       0
    376 f_16_3                  4                       0
    383 f_3_20                  4                       0
    384 f_20_3                  5                       0
    425 f_5_8                   5                       0
    426 f_8_5                   4                       0
    439 f_5_15                  5                       0
    440 f_15_5                  4                       0
    451 f_5_21                3.5                       0
    452 f_21_5                5.5                       0
    481 f_6_21                  4                       0
    482 f_21_6                  5                       0
    487 f_7_10                  5                       0
    488 f_10_7                  4                       0
    507 f_7_20                3.5                       0
    508 f_20_7                5.5                       0
    633 f_13_20               6.5                       0
    634 f_20_13               2.5                       0
    635 f_13_21                 6                       0
    636 f_21_13                 3                       0
